EVRP-TW-SPD dataset generation/evrptwspd_instances/small_instances/Cplex5er/r105C5.txt
StringID	Type	x	y	Delivery	Pickup	ReadyTime	DueDate	ServiceTime
D0	d	35.0	35.0	0.0	0.0	0.0	230.0	0.0
S0	f	35.0	35.0	0.0	0.0	0.0	230.0	0.0
S1	f	64.0	37.0	0.0	0.0	0.0	230.0	0.0
S13	f	21.0	22.0	0.0	0.0	0.0	230.0	0.0
C91	c	15.0	19.0	0.7894736842105263	0.21052631578947367	77.0	107.0	10.0
C28	c	41.0	37.0	14.439024390243903	1.5609756097560972	183.0	213.0	10.0
C75	c	49.0	11.0	4.040816326530612	13.959183673469388	49.0	79.0	10.0
C78	c	61.0	52.0	2.5573770491803276	0.4426229508196724	158.0	188.0	10.0
C95	c	25.0	24.0	19.2	0.8000000000000007	130.0	160.0	10.0

Q Vehicle fuel tank capacity /60.63/
C Vehicle load capacity /200.0/
r fuel consumption rate /1.0/
g inverse refueling rate /0.49/
v average Velocity /1.0/
